
Gurobi 12.0.0 (win64) logging started Mon May  4 20:49:14 2026

Set parameter LogFile to value "C:\Users\Asus\Documents\GitHub\logistics-model2\internal-logistics-model2\results\SR_SV_WT\case2\result_SR_SV_WT_case2_P5_eps9999_2026_05_04_20_49.log"
Gurobi Optimizer version 12.0.0 build v12.0.0rc1 (win64 - Windows 10.0 (19045.2))

CPU model: 12th Gen Intel(R) Core(TM) i7-12650H, instruction set [SSE2|AVX|AVX2]
Thread count: 10 physical cores, 16 logical processors, using up to 16 threads

Non-default parameters:
TimeLimit  600
MIPGap  0.01
Presolve  2

Optimize a model with 2717 rows, 813 columns and 13585 nonzeros
Model fingerprint: 0x58c13d00
Variable types: 133 continuous, 680 integer (655 binary)
Coefficient statistics:
  Matrix range     [1e+00, 5e+02]
  Objective range  [1e-03, 1e+00]
  Bounds range     [1e+00, 3e+01]
  RHS range        [1e+00, 1e+04]
Presolve removed 2451 rows and 711 columns
Presolve time: 0.01s
Presolved: 266 rows, 102 columns, 1113 nonzeros
Variable types: 29 continuous, 73 integer (65 binary)
Root relaxation presolve removed 10 rows and 0 columns
Root relaxation presolved: 256 rows, 111 columns, 1093 nonzeros


Root relaxation: objective 1.500000e+01, 63 iterations, 0.00 seconds (0.00 work units)

    Nodes    |    Current Node    |     Objective Bounds      |     Work
 Expl Unexpl |  Obj  Depth IntInf | Incumbent    BestBd   Gap | It/Node Time

     0     0   15.00000    0   15          -   15.00000      -     -    0s
H    0     0                     112.0740000   15.00000  86.6%     -    0s
H    0     0                     106.0730000   15.00000  85.9%     -    0s
     0     0   15.00000    0   25  106.07300   15.00000  85.9%     -    0s
     0     0   15.01113    0   23  106.07300   15.01113  85.8%     -    0s
     0     0   15.50162    0   28  106.07300   15.50162  85.4%     -    0s
     0     0   16.75675    0   31  106.07300   16.75675  84.2%     -    0s
     0     0   17.00619    0   32  106.07300   17.00619  84.0%     -    0s
     0     0   17.00619    0   32  106.07300   17.00619  84.0%     -    0s
     0     0   26.98327    0   29  106.07300   26.98327  74.6%     -    0s
H    0     0                     103.0790000   28.25280  72.6%     -    0s
     0     0   28.25280    0   32  103.07900   28.25280  72.6%     -    0s
     0     0   28.25280    0   29  103.07900   28.25280  72.6%     -    0s
     0     0   28.25280    0   26  103.07900   28.25280  72.6%     -    0s
H    0     0                      85.0670000   28.25280  66.8%     -    0s
     0     0   28.25280    0   27   85.06700   28.25280  66.8%     -    0s
     0     0   32.78444    0   37   85.06700   32.78444  61.5%     -    0s
     0     0   34.11596    0   34   85.06700   34.11596  59.9%     -    0s
     0     0   34.15065    0   39   85.06700   34.15065  59.9%     -    0s
     0     0   34.24353    0   38   85.06700   34.24353  59.7%     -    0s
     0     0   34.26234    0   39   85.06700   34.26234  59.7%     -    0s
     0     0   36.19916    0   35   85.06700   36.19916  57.4%     -    0s
     0     0   36.33069    0   38   85.06700   36.33069  57.3%     -    0s
     0     0   36.40238    0   39   85.06700   36.40238  57.2%     -    0s
     0     0   36.40431    0   40   85.06700   36.40431  57.2%     -    0s
     0     0   36.78517    0   41   85.06700   36.78517  56.8%     -    0s
     0     0   36.87122    0   40   85.06700   36.87122  56.7%     -    0s
     0     0   36.87122    0   41   85.06700   36.87122  56.7%     -    0s
     0     0   37.57433    0   35   85.06700   37.57433  55.8%     -    0s
     0     0   37.57433    0   28   85.06700   37.57433  55.8%     -    0s
     0     0   37.68001    0   37   85.06700   37.68001  55.7%     -    0s
     0     0   37.68001    0   38   85.06700   37.68001  55.7%     -    0s
     0     0   38.53846    0   38   85.06700   38.53846  54.7%     -    0s
     0     0   38.98346    0   37   85.06700   38.98346  54.2%     -    0s
     0     0   39.09536    0   38   85.06700   39.09536  54.0%     -    0s
     0     0   39.10490    0   37   85.06700   39.10490  54.0%     -    0s
     0     0   39.10799    0   37   85.06700   39.10799  54.0%     -    0s
     0     0   39.11282    0   37   85.06700   39.11282  54.0%     -    0s
     0     0   39.29942    0   37   85.06700   39.29942  53.8%     -    0s
     0     0   39.29942    0   37   85.06700   39.29942  53.8%     -    0s
     0     2   39.29942    0   37   85.06700   39.29942  53.8%     -    0s

Cutting planes:
  Learned: 5
  Cover: 1
  Implied bound: 34
  MIR: 80
  Inf proof: 3
  RLT: 9
  Relax-and-lift: 16

Explored 931 nodes (10829 simplex iterations) in 0.17 seconds (0.13 work units)
Thread count was 16 (of 16 available processors)

Solution count 4: 85.067 103.079 106.073 112.074 

Optimal solution found (tolerance 1.00e-02)
Best objective 8.506700000000e+01, best bound 8.506700000000e+01, gap 0.0000%
